words_hard_train/2619.qaiger
aag 80 16 0 1 64
2
4
12
14
18
22
26
30
44
52
62
64
68
82
102
118
161
6 2 4
8 3 5
10 7 9
16 13 15
20 16 19
24 20 23
28 24 27
32 28 31
34 10 33
36 11 32
38 35 37
40 17 18
42 41 21
46 43 45
48 21 22
50 49 25
54 51 53
56 50 52
58 55 57
60 47 58
66 62 65
70 68 12
72 67 71
74 69 13
76 73 75
78 12 14
80 79 17
84 81 83
86 76 85
88 80 82
90 87 89
92 42 44
94 90 93
96 60 95
98 25 26
100 99 29
104 100 102
106 97 105
108 106 57
110 101 103
112 109 111
114 29 30
116 33 115
120 117 119
122 116 118
124 121 123
126 112 124
128 127 123
130 39 128
132 38 129
134 131 133
136 105 111
138 89 93
140 136 138
142 140 60
144 113 125
146 142 145
148 63 64
150 149 75
152 150 72
154 152 85
156 154 127
158 146 156
160 134 159
i0 1 x1[7]
i1 2 y1[7]
i2 2 y1[1]
i3 2 y1[2]
i4 2 y1[3]
i5 2 y1[4]
i6 2 y1[5]
i7 2 y1[6]
i8 1 x1[3]
i9 1 x1[4]
i10 1 x1[0]
i11 2 y1[0]
i12 1 x1[1]
i13 1 x1[2]
i14 1 x1[5]
i15 1 x1[6]
o0 bv[0]
c
simplified
  <=
    unary minus
      1
    subtract
      1 x1
      subtract
        2 y1
        1
