words_hard_train/2619.qaiger.qdimacs
p cnf 80 193
a 1 34 41 51 22 26 59 31 0
e 2 3 4 5 6 7 8 9 10 11 12 13 14 15 16 17 18 19 20 21 23 24 25 27 28 29 30 32 33 35 36 37 38 39 40 42 43 44 45 46 47 48 49 50 52 53 54 55 56 57 58 60 61 62 63 64 65 66 67 68 69 70 71 72 73 74 75 76 77 78 79 80 0
-1 -2 3 0
1 -3 0
2 -3 0
1 2 4 0
-1 -4 0
-2 -4 0
3 4 5 0
-3 -5 0
-4 -5 0
6 7 8 0
-6 -8 0
-7 -8 0
-8 9 10 0
8 -10 0
-9 -10 0
-10 11 12 0
10 -12 0
-11 -12 0
-12 13 14 0
12 -14 0
-13 -14 0
-14 15 16 0
14 -16 0
-15 -16 0
-5 16 17 0
5 -17 0
-16 -17 0
5 -16 18 0
-5 -18 0
16 -18 0
17 18 19 0
-17 -19 0
-18 -19 0
8 -9 20 0
-8 -20 0
9 -20 0
20 10 21 0
-20 -21 0
-10 -21 0
21 22 23 0
-21 -23 0
-22 -23 0
10 -11 24 0
-10 -24 0
11 -24 0
24 12 25 0
-24 -25 0
-12 -25 0
25 26 27 0
-25 -27 0
-26 -27 0
-25 -26 28 0
25 -28 0
26 -28 0
27 28 29 0
-27 -29 0
-28 -29 0
23 -29 30 0
-23 -30 0
29 -30 0
-31 32 33 0
31 -33 0
-32 -33 0
-34 -6 35 0
34 -35 0
6 -35 0
33 35 36 0
-33 -36 0
-35 -36 0
34 6 37 0
-34 -37 0
-6 -37 0
36 37 38 0
-36 -38 0
-37 -38 0
-6 -7 39 0
6 -39 0
7 -39 0
39 8 40 0
-39 -40 0
-8 -40 0
40 41 42 0
-40 -42 0
-41 -42 0
-38 42 43 0
38 -43 0
-42 -43 0
-40 -41 44 0
40 -44 0
41 -44 0
43 44 45 0
-43 -45 0
-44 -45 0
-21 -22 46 0
21 -46 0
22 -46 0
-45 46 47 0
45 -47 0
-46 -47 0
-30 47 48 0
30 -48 0
-47 -48 0
12 -13 49 0
-12 -49 0
13 -49 0
49 14 50 0
-49 -50 0
-14 -50 0
-50 -51 52 0
50 -52 0
51 -52 0
48 52 53 0
-48 -53 0
-52 -53 0
-53 28 54 0
53 -54 0
-28 -54 0
50 51 55 0
-50 -55 0
-51 -55 0
54 55 56 0
-54 -56 0
-55 -56 0
14 -15 57 0
-14 -57 0
15 -57 0
16 57 58 0
-16 -58 0
-57 -58 0
58 59 60 0
-58 -60 0
-59 -60 0
-58 -59 61 0
58 -61 0
59 -61 0
60 61 62 0
-60 -62 0
-61 -62 0
-56 -62 63 0
56 -63 0
62 -63 0
63 61 64 0
-63 -64 0
-61 -64 0
19 -64 65 0
-19 -65 0
64 -65 0
-19 64 66 0
19 -66 0
-64 -66 0
65 66 67 0
-65 -67 0
-66 -67 0
52 55 68 0
-52 -68 0
-55 -68 0
44 46 69 0
-44 -69 0
-46 -69 0
-68 -69 70 0
68 -70 0
69 -70 0
-70 -30 71 0
70 -71 0
30 -71 0
56 62 72 0
-56 -72 0
-62 -72 0
-71 72 73 0
71 -73 0
-72 -73 0
31 -32 74 0
-31 -74 0
32 -74 0
74 37 75 0
-74 -75 0
-37 -75 0
-75 -36 76 0
75 -76 0
36 -76 0
-76 42 77 0
76 -77 0
-42 -77 0
-77 63 78 0
77 -78 0
-63 -78 0
-73 -78 79 0
73 -79 0
78 -79 0
-67 79 80 0
67 -80 0
-79 -80 0
-80 0
